certificates/rado_a14_c226_N27.cnf
c Rad2 upper bound instance: x1 + 14*x2 - x3 = 226, interval [1,27]
p cnf 27 104
1 13 17 0
-1 -13 -17 0
1 18 27 0
-1 -18 -27 0
2 14 17 0
-2 -14 -17 0
1 3 16 0
-1 -3 -16 0
3 15 17 0
-3 -15 -17 0
2 4 16 0
-2 -4 -16 0
4 16 17 0
-4 -16 -17 0
3 5 16 0
-3 -5 -16 0
5 17 0
-5 -17 0
4 6 16 0
-4 -6 -16 0
6 17 18 0
-6 -17 -18 0
5 7 16 0
-5 -7 -16 0
7 17 19 0
-7 -17 -19 0
6 8 16 0
-6 -8 -16 0
8 17 20 0
-8 -17 -20 0
7 9 16 0
-7 -9 -16 0
9 17 21 0
-9 -17 -21 0
8 10 16 0
-8 -10 -16 0
10 17 22 0
-10 -17 -22 0
9 11 16 0
-9 -11 -16 0
11 17 23 0
-11 -17 -23 0
10 12 16 0
-10 -12 -16 0
12 17 24 0
-12 -17 -24 0
11 13 16 0
-11 -13 -16 0
13 17 25 0
-13 -17 -25 0
12 14 16 0
-12 -14 -16 0
14 17 26 0
-14 -17 -26 0
13 15 16 0
-13 -15 -16 0
15 17 27 0
-15 -17 -27 0
14 16 0
-14 -16 0
1 15 17 0
-1 -15 -17 0
15 16 17 0
-15 -16 -17 0
2 15 18 0
-2 -15 -18 0
16 18 0
-16 -18 0
3 15 19 0
-3 -15 -19 0
16 17 19 0
-16 -17 -19 0
4 15 20 0
-4 -15 -20 0
16 18 20 0
-16 -18 -20 0
5 15 21 0
-5 -15 -21 0
16 19 21 0
-16 -19 -21 0
6 15 22 0
-6 -15 -22 0
16 20 22 0
-16 -20 -22 0
7 15 23 0
-7 -15 -23 0
16 21 23 0
-16 -21 -23 0
8 15 24 0
-8 -15 -24 0
16 22 24 0
-16 -22 -24 0
9 15 25 0
-9 -15 -25 0
16 23 25 0
-16 -23 -25 0
10 15 26 0
-10 -15 -26 0
16 24 26 0
-16 -24 -26 0
11 15 27 0
-11 -15 -27 0
16 25 27 0
-16 -25 -27 0
