certificates/rado_a14_c226_N27.drat
16 -26 -27 0
17 25 -16 0
-16 -27 0
d -25 -16 -27 0
-17 -27 0
-27 0
17 0
-5 0
-15 0
21 0
11 0
-9 0
-23 0
25 0
7 0
-13 0
-19 0
16 0
3 0
-14 0
-18 0
-4 0
-1 0
0
